

******************************************************************************
This program contains Ipopt, a library for large-scale nonlinear optimization.
 Ipopt is released as open source code under the Eclipse Public License (EPL).
         For more information visit https://github.com/coin-or/Ipopt
******************************************************************************

This is Ipopt version 3.14.11, running with linear solver MUMPS 5.5.1.

Number of nonzeros in equality constraint Jacobian...:        0
Number of nonzeros in inequality constraint Jacobian.:        6
Number of nonzeros in Lagrangian Hessian.............:        6

Total number of variables............................:        3
                     variables with only lower bounds:        3
                variables with lower and upper bounds:        0
                     variables with only upper bounds:        0
Total number of equality constraints.................:        0
Total number of inequality constraints...............:        2
        inequality constraints with only lower bounds:        0
   inequality constraints with lower and upper bounds:        0
        inequality constraints with only upper bounds:        2

iter    objective    inf_pr   inf_du lg(mu)  ||d||  lg(rg) alpha_du alpha_pr  ls
   0 -1.7906977e+00 3.98e+02 9.22e-01  -1.0 0.00e+00    -  0.00e+00 0.00e+00   0
   1 -1.8844244e+00 6.28e+01 7.38e-02  -1.0 5.88e+01    -  9.33e-01 8.42e-01h  1
   2 -1.1509710e+00 1.64e+01 3.33e-01  -1.0 4.68e+01    -  1.00e+00 7.35e-01h  1
   3  2.6585216e+00 7.48e-01 5.35e+00  -1.0 5.35e+00    -  1.00e+00 9.36e-01h  1
   4  3.5437562e+00 3.08e-01 2.83e+00  -1.0 7.07e-01    -  1.00e+00 6.14e-01h  1
   5  4.5062370e+00 0.00e+00 7.76e-01  -1.0 3.69e-01    -  1.00e+00 1.00e+00h  1
   6  4.3389527e+00 0.00e+00 8.16e-02  -1.7 2.20e-01    -  9.19e-01 1.00e+00f  1
   7  4.2630835e+00 0.00e+00 4.35e-03  -2.5 1.47e-01    -  1.00e+00 9.62e-01f  1
   8  4.2505562e+00 0.00e+00 4.22e-05  -3.8 3.59e-02    -  1.00e+00 1.00e+00f  1
   9  4.2500057e+00 0.00e+00 6.98e-08  -5.7 7.60e-04    -  1.00e+00 1.00e+00f  1
iter    objective    inf_pr   inf_du lg(mu)  ||d||  lg(rg) alpha_du alpha_pr  ls
  10  4.2500000e+00 0.00e+00 8.64e-12  -8.6 7.62e-06    -  1.00e+00 1.00e+00f  1

Number of Iterations....: 10

                                   (scaled)                 (unscaled)
Objective...............:   4.2499999638011827e+00    4.2499999638011827e+00
Dual infeasibility......:   8.6366469531640178e-12    8.6366469531640178e-12
Constraint violation....:   0.0000000000000000e+00    0.0000000000000000e+00
Variable bound violation:   7.4659514277175219e-09    7.4659514277175219e-09
Complementarity.........:   2.5340486111640414e-09    2.5340486111640414e-09
Overall NLP error.......:   2.5340486111640414e-09    2.5340486111640414e-09


Number of objective function evaluations             = 11
Number of objective gradient evaluations             = 11
Number of equality constraint evaluations            = 0
Number of inequality constraint evaluations          = 11
Number of equality constraint Jacobian evaluations   = 0
Number of inequality constraint Jacobian evaluations = 11
Number of Lagrangian Hessian evaluations             = 10
Total seconds in IPOPT                               = 0.006

EXIT: Optimal Solution Found.
 
Ipopt 3.14.11: Optimal Solution Found
